1 2 1
1 3 38
1 4 48
1 5 49
1 6 25
1 7 15
1 8 10
1 9 46
1 10 28
1 11 34
1 12 24
1 13 49
1 14 38
1 15 1
1 16 24
1 17 45
1 18 50
1 19 3
1 20 25
1 21 30
1 22 8
1 23 11
1 24 10
1 25 30
1 26 22
1 27 30
1 28 2
1 29 46
1 30 28
2 3 17
2 4 36
2 5 44
2 6 36
2 7 47
2 8 39
2 9 49
2 10 8
2 11 6
2 12 23
2 13 5
2 14 44
2 15 49
2 16 41
2 17 48
2 18 21
2 19 50
2 20 34
2 21 17
2 22 22
2 23 33
2 24 13
2 25 21
2 26 2
2 27 39
2 28 11
2 29 12
2 30 13
3 4 45
3 5 5
3 6 22
3 7 19
3 8 5
3 9 8
3 10 13
3 11 29
3 12 7
3 13 13
3 14 30
3 15 46
3 16 4
3 17 33
3 18 27
3 19 47
3 20 47
3 21 19
3 22 28
3 23 14
3 24 42
3 25 40
3 26 17
3 27 11
3 28 17
3 29 12
3 30 36
4 5 4
4 6 32
4 7 17
4 8 13
4 9 34
4 10 21
4 11 10
4 12 10
4 13 7
4 14 4
4 15 31
4 16 26
4 17 1
4 18 36
4 19 36
4 20 47
4 21 43
4 22 12
4 23 10
4 24 10
4 25 20
4 26 18
4 27 44
4 28 48
4 29 15
4 30 30
5 6 15
5 7 38
5 8 24
5 9 11
5 10 9
5 11 42
5 12 47
5 13 50
5 14 8
5 15 33
5 16 27
5 17 32
5 18 11
5 19 48
5 20 2
5 21 10
5 22 3
5 23 16
5 24 29
5 25 21
5 26 14
5 27 3
5 28 46
5 29 13
5 30 29
6 7 23
6 8 10
6 9 16
6 10 10
6 11 25
6 12 47
6 13 11
6 14 15
6 15 1
6 16 31
6 17 14
6 18 7
6 19 19
6 20 43
6 21 33
6 22 16
6 23 47
6 24 25
6 25 47
6 26 30
6 27 15
6 28 11
6 29 46
6 30 24
7 8 37
7 9 40
7 10 28
7 11 16
7 12 47
7 13 46
7 14 7
7 15 48
7 16 44
7 17 38
7 18 32
7 19 10
7 20 34
7 21 31
7 22 37
7 23 2
7 24 12
7 25 10
7 26 26
7 27 16
7 28 48
7 29 29
7 30 23
8 9 14
8 10 4
8 11 7
8 12 6
8 13 50
8 14 12
8 15 18
8 16 2
8 17 31
8 18 36
8 19 2
8 20 40
8 21 22
8 22 48
8 23 45
8 24 10
8 25 13
8 26 10
8 27 24
8 28 32
8 29 43
8 30 5
9 10 14
9 11 23
9 12 39
9 13 5
9 14 24
9 15 15
9 16 28
9 17 39
9 18 40
9 19 10
9 20 21
9 21 28
9 22 47
9 23 10
9 24 2
9 25 34
9 26 33
9 27 34
9 28 34
9 29 34
9 30 31
10 11 22
10 12 44
10 13 40
10 14 28
10 15 19
10 16 26
10 17 15
10 18 46
10 19 21
10 20 26
10 21 9
10 22 40
10 23 15
10 24 44
10 25 23
10 26 7
10 27 9
10 28 43
10 29 6
10 30 22
11 12 32
11 13 33
11 14 28
11 15 13
11 16 29
11 17 24
11 18 48
11 19 30
11 20 31
11 21 23
11 22 41
11 23 35
11 24 22
11 25 29
11 26 33
11 27 2
11 28 11
11 29 22
11 30 6
12 13 31
12 14 18
12 15 31
12 16 11
12 17 28
12 18 25
12 19 18
12 20 12
12 21 39
12 22 8
12 23 28
12 24 40
12 25 50
12 26 26
12 27 44
12 28 44
12 29 22
12 30 29
13 14 36
13 15 11
13 16 44
13 17 47
13 18 29
13 19 23
13 20 18
13 21 20
13 22 49
13 23 12
13 24 21
13 25 18
13 26 22
13 27 44
13 28 30
13 29 22
13 30 46
14 15 30
14 16 44
14 17 49
14 18 39
14 19 11
14 20 34
14 21 40
14 22 2
14 23 36
14 24 39
14 25 45
14 26 39
14 27 3
14 28 29
14 29 12
14 30 47
15 16 6
15 17 40
15 18 18
15 19 37
15 20 9
15 21 14
15 22 28
15 23 7
15 24 3
15 25 36
15 26 49
15 27 20
15 28 25
15 29 7
15 30 14
16 17 1
16 18 25
16 19 1
16 20 31
16 21 29
16 22 15
16 23 25
16 24 15
16 25 23
16 26 16
16 27 37
16 28 43
16 29 50
16 30 25
17 18 39
17 19 8
17 20 5
17 21 21
17 22 4
17 23 12
17 24 16
17 25 13
17 26 31
17 27 40
17 28 13
17 29 5
17 30 5
18 19 48
18 20 12
18 21 38
18 22 20
18 23 28
18 24 8
18 25 31
18 26 16
18 27 31
18 28 19
18 29 44
18 30 48
19 20 29
19 21 35
19 22 7
19 23 2
19 24 19
19 25 19
19 26 33
19 27 17
19 28 34
19 29 22
19 30 3
20 21 45
20 22 30
20 23 38
20 24 10
20 25 23
20 26 15
20 27 45
20 28 25
20 29 37
20 30 7
21 22 46
21 23 27
21 24 26
21 25 27
21 26 18
21 27 41
21 28 43
21 29 39
21 30 9
22 23 24
22 24 30
22 25 42
22 26 18
22 27 11
22 28 39
22 29 39
22 30 36
23 24 46
23 25 37
23 26 50
23 27 36
23 28 21
23 29 22
23 30 38
24 25 11
24 26 27
24 27 10
24 28 31
24 29 34
24 30 42
25 26 45
25 27 34
25 28 21
25 29 49
25 30 39
26 27 24
26 28 49
26 29 2
26 30 25
27 28 15
27 29 18
27 30 8
28 29 26
28 30 11
29 30 37
